%Chk=HI.chk
#n B3LYP/genecp Opt Pop=NPA

 HI

0 1
I         -6.43267        1.59518       -0.68480
H         -4.70706        1.59518       -0.68480

H 0 
6-31+G(d,p)
******
I 0
Lanl2dz 
******

I 0
lanl2dz



