%Chk=eteno.chk
#n B3LYP/6-31+G(d,p) Opt Pop=NPA

 eteno

0 1
C          1.09572        0.40874        0.27499
C          2.03448       -0.36184       -0.27403
H          1.37360        1.30567        0.81824
H          0.04785        0.14384        0.18205
H          3.08235       -0.09694       -0.18109
H          1.75660       -1.25877       -0.81728

