%Chk=HF.chk
#n B3LYP/6-31+G(d,p) Opt Pop=NPA

 HF

0 1
F         -4.70694        1.32171       -0.28114
H         -3.72143        1.32171       -0.28114

