%Chk=etino.chk
#n B3LYP/6-31+G(d,p) Opt Pop=NPA

 etino

0 1
C          1.14062        0.37188        0.24873
C          1.98958       -0.32498       -0.24777
H          0.39517        0.98378        0.68469
H          2.73503       -0.93688       -0.68373

