%Chk=HBr.chk
#n B3LYP/6-31+G(d,p) Opt Pop=NPA

 HBr

0 1
Br        -4.96714        1.04568       -0.77141
H         -3.43818        1.04568       -0.77141

