%Chk=HCl.chk
#n B3LYP/6-31+G(d,p) Opt Pop=NPA

 HCl

0 1
Cl        -3.32284        0.57708       -0.66849
H         -1.94719        0.57708       -0.66849

